nNurses = 58;
nHours = 38;
minHours = 9;
maxHours = 19;
maxConsec = 9;
maxPresence = 18;
demand = [22, 27, 25, 27, 22, 17, 15, 11, 13, 12, 17, 22, 21, 18, 13, 14, 14, 15, 20, 20, 24, 19, 19, 15, 17, 18, 14, 19, 14, 14, 9, 12, 10, 15, 20, 16, 21, 23];
